50
4785

504 375
140 45
72 488
556 412
137 410
421 950
160 527
617 5
381 519
332 313
131 28
74 259
729 704
355 747
879 380
171 988
940 200
392 406
35 337
448 628
859 466
661 317
619 363
751 249
887 121
322 873
846 565
334 332
734 972
681 82
938 76
604 661
493 483
613 261
709 745
132 635
904 692
572 37
670 926
397 307
384 938
798 7
96 291
934 753
583 410
870 305
722 883
727 293
10 626
998 512
